language Essence 1.3
$ generated by bacp-gen.pl with seed 1058338582
$ edge probability 0.0246
$ course loads in range 2..8
letting n_courses be 175
letting n_periods be 30
letting load_per_period_lb be 5
letting load_per_period_ub be 34
letting courses_per_period_lb be 5
letting courses_per_period_ub be 8
letting course_load be function(
1 --> 6,
2 --> 5,
3 --> 4,
4 --> 2,
5 --> 3,
6 --> 7,
7 --> 2,
8 --> 6,
9 --> 2,
10 --> 4,
11 --> 3,
12 --> 3,
13 --> 7,
14 --> 3,
15 --> 2,
16 --> 5,
17 --> 8,
18 --> 5,
19 --> 7,
20 --> 3,
21 --> 3,
22 --> 4,
23 --> 3,
24 --> 7,
25 --> 6,
26 --> 3,
27 --> 7,
28 --> 5,
29 --> 2,
30 --> 8,
31 --> 5,
32 --> 5,
33 --> 2,
34 --> 5,
35 --> 7,
36 --> 3,
37 --> 4,
38 --> 3,
39 --> 5,
40 --> 8,
41 --> 7,
42 --> 7,
43 --> 3,
44 --> 2,
45 --> 6,
46 --> 4,
47 --> 3,
48 --> 5,
49 --> 2,
50 --> 3,
51 --> 3,
52 --> 8,
53 --> 7,
54 --> 4,
55 --> 3,
56 --> 4,
57 --> 4,
58 --> 5,
59 --> 2,
60 --> 6,
61 --> 7,
62 --> 4,
63 --> 3,
64 --> 6,
65 --> 6,
66 --> 2,
67 --> 6,
68 --> 5,
69 --> 8,
70 --> 6,
71 --> 5,
72 --> 3,
73 --> 5,
74 --> 2,
75 --> 7,
76 --> 8,
77 --> 7,
78 --> 3,
79 --> 8,
80 --> 4,
81 --> 8,
82 --> 7,
83 --> 8,
84 --> 2,
85 --> 6,
86 --> 5,
87 --> 6,
88 --> 5,
89 --> 7,
90 --> 5,
91 --> 4,
92 --> 8,
93 --> 3,
94 --> 5,
95 --> 3,
96 --> 3,
97 --> 5,
98 --> 7,
99 --> 3,
100 --> 3,
101 --> 4,
102 --> 4,
103 --> 5,
104 --> 5,
105 --> 2,
106 --> 5,
107 --> 7,
108 --> 3,
109 --> 3,
110 --> 3,
111 --> 2,
112 --> 6,
113 --> 8,
114 --> 5,
115 --> 5,
116 --> 6,
117 --> 7,
118 --> 3,
119 --> 2,
120 --> 2,
121 --> 3,
122 --> 4,
123 --> 8,
124 --> 2,
125 --> 7,
126 --> 7,
127 --> 5,
128 --> 3,
129 --> 2,
130 --> 6,
131 --> 8,
132 --> 2,
133 --> 3,
134 --> 2,
135 --> 4,
136 --> 3,
137 --> 3,
138 --> 6,
139 --> 2,
140 --> 5,
141 --> 4,
142 --> 3,
143 --> 5,
144 --> 3,
145 --> 4,
146 --> 4,
147 --> 5,
148 --> 7,
149 --> 6,
150 --> 6,
151 --> 7,
152 --> 5,
153 --> 4,
154 --> 4,
155 --> 7,
156 --> 3,
157 --> 5,
158 --> 3,
159 --> 6,
160 --> 5,
161 --> 3,
162 --> 6,
163 --> 2,
164 --> 3,
165 --> 4,
166 --> 6,
167 --> 3,
168 --> 7,
169 --> 4,
170 --> 2,
171 --> 6,
172 --> 6,
173 --> 7,
174 --> 6,
175 --> 6
)
letting prerequisite be relation (
(23,54),
(8,55),
(19,56),
(40,57),
(38,58),
(12,59),
(8,60),
(11,61),
(34,62),
(30,63),
(35,64),
(34,65),
(35,66),
(18,67),
(23,68),
(32,69),
(30,70),
(29,71),
(18,72),
(39,73),
(34,74),
(19,75),
(26,76),
(21,77),
(43,78),
(6,79),
(34,80),
(28,81),
(17,82),
(30,83),
(11,84),
(34,85),
(18,86),
(53,87),
(8,88),
(34,89),
(34,90),
(45,91),
(13,92),
(47,93),
(50,94),
(14,95),
(21,96),
(42,97),
(38,98),
(19,99),
(6,100),
(9,101),
(23,102),
(20,103),
(49,104),
(24,105),
(35,106),
(4,107),
(5,108),
(50,109),
(53,110),
(24,111),
(14,112),
(2,113),
(19,114),
(20,115),
(1,116),
(49,117),
(9,118),
(20,119),
(23,120),
(10,121),
(9,122),
(33,123),
(17,124),
(46,125),
(33,126),
(33,127),
(36,128),
(6,129),
(123,130),
(81,131),
(115,132),
(88,133),
(78,134),
(97,135),
(98,136),
(83,137),
(121,138),
(106,139),
(93,140),
(62,141),
(115,142),
(85,143),
(96,144),
(100,145),
(85,146),
(86,147),
(81,148),
(59,149),
(107,150),
(84,151),
(91,152),
(122,153),
(86,154),
(64,155),
(74,156),
(101,157),
(127,158),
(106,159),
(65,160),
(113,161),
(95,162),
(82,163),
(123,164),
(88,165),
(104,166),
(109,167),
(102,168),
(92,169),
(66,170),
(97,171),
(64,172),
(81,173),
(72,174),
(72,175),
(12,103),
(28,124),
(48,63),
(71,156),
(96,158),
(122,133),
(18,87),
(111,170),
(67,155),
(111,166),
(41,120),
(126,152),
(17,73),
(41,77),
(22,55),
(47,112),
(123,169),
(50,87),
(83,143),
(47,58),
(94,159),
(120,169),
(78,137),
(46,57),
(37,117),
(49,118),
(124,156),
(14,64),
(34,98),
(5,111),
(37,124),
(70,131),
(26,58),
(36,64),
(64,133),
(9,125),
(90,155),
(25,124),
(91,136),
(76,155),
(90,157),
(120,148),
(85,148),
(66,132),
(95,153),
(90,158),
(9,56),
(89,142),
(89,167),
(115,173),
(84,163),
(98,130),
(78,150),
(4,122),
(115,165),
(5,125),
(115,171),
(30,55),
(78,160),
(52,115),
(71,150),
(62,130),
(98,167)
)

